NAME : random_12
COMMENT : 40 random nodes
TYPE : TSP
DIMENSION : 40
EDGE_WEIGHT_TYPE : EUC_2D
NODE_COORD_SECTION
1 417 524
2 232 772
3 276 501
4 311 240
5 748 322
6 620 272
7 165 263
8 747 191
9 387 527
10 699 86
11 333 870
12 415 57
13 797 869
14 582 755
15 897 453
16 449 563
17 295 929
18 370 292
19 811 865
20 263 444
21 680 722
22 557 141
23 76 964
24 881 379
25 12 44
26 229 381
27 661 83
28 163 745
29 503 181
30 288 211
31 128 561
32 510 347
33 648 105
34 698 983
35 19 581
36 813 180
37 23 331
38 557 865
39 442 375
40 440 403
EOF